;; produced by z3_gnatprove.drv ;;
(set-info :smt-lib-version 2.5)
(set-info :source |VC generated by SPARK 2014|)
(set-info :category industrial)
(set-info :status unknown)
;;; generated by SMT-LIB2 driver
;;; SMT-LIB2 driver: bit-vectors, common part
;;; SMT-LIB2: integer arithmetic
(declare-sort string 0)

(declare-datatypes () ((tuple0 (Tuple0))))
(declare-sort us_private 0)

(declare-fun private__bool_eq (us_private us_private) Bool)

(declare-const us_null_ext__ us_private)

(declare-sort us_type_of_heap 0)

(declare-datatypes ()
((us_type_of_heap__ref
 (us_type_of_heap__refqtmk (us_type_of_heap__content us_type_of_heap)))))
(declare-sort us_image 0)

(declare-datatypes () ((int__ref (int__refqtmk (int__content Int)))))
(declare-datatypes () ((bool__ref (bool__refqtmk (bool__content Bool)))))
(declare-datatypes ()
((us_fixed__ref (us_fixed__refqtmk (us_fixed__content Int)))))
(declare-datatypes () ((real__ref (real__refqtmk (real__content Real)))))
(declare-datatypes ()
((us_private__ref (us_private__refqtmk (us_private__content us_private)))))
(define-fun int__ref___projection ((a int__ref)) Int (int__content a))

(define-fun us_fixed__ref___projection ((a us_fixed__ref)) Int (us_fixed__content
                                                               a))

(define-fun bool__ref___projection ((a bool__ref)) Bool (bool__content a))

(define-fun real__ref___projection ((a real__ref)) Real (real__content a))

(define-fun us_private__ref___projection ((a us_private__ref)) us_private 
  (us_private__content a))

(define-fun in_range ((x Int)) Bool (or (= x 0) (= x 1)))

(declare-fun attr__ATTRIBUTE_IMAGE (Bool) us_image)

(declare-fun attr__ATTRIBUTE_VALUE__pre_check (us_image) Bool)

(declare-fun attr__ATTRIBUTE_VALUE (us_image) Bool)

(declare-datatypes ()
((map__ref (map__refqtmk (map__content (Array Int Bool))))))
(declare-fun slide ((Array Int Bool) Int Int) (Array Int Bool))

;; slide_eq
  (assert
  (forall ((a (Array Int Bool)))
  (forall ((first Int))
  (! (= (slide a first first) a) :pattern ((slide a first first)) ))))

;; slide_def
  (assert
  (forall ((a (Array Int Bool)))
  (forall ((old_first Int))
  (forall ((new_first Int))
  (forall ((i Int))
  (! (= (select (slide a old_first new_first) i) (select a (- i (- new_first old_first)))) :pattern ((select 
  (slide a old_first new_first) i)) ))))))

(define-fun bool_eq ((a (Array Int Bool)) (a__first Int) (a__last Int)
  (b (Array Int Bool)) (b__first Int)
  (b__last Int)) Bool (ite (and
                           (ite (<= a__first a__last)
                           (and (<= b__first b__last)
                           (= (- a__last a__first) (- b__last b__first)))
                           (< b__last b__first))
                           (forall ((temp___idx_154 Int))
                           (=>
                           (and (<= a__first temp___idx_154)
                           (<= temp___idx_154 a__last))
                           (= (ite (select a temp___idx_154) 1 0) (ite (select b (+ (- b__first a__first) temp___idx_154)) 1 0)))))
                      true false))

;; bool_eq_rev
  (assert
  (forall ((a (Array Int Bool)) (b (Array Int Bool)))
  (forall ((a__first Int) (a__last Int) (b__first Int) (b__last Int))
  (=> (= (bool_eq b b__first b__last a a__first a__last) true)
  (and
  (ite (<= a__first a__last)
  (and (<= b__first b__last) (= (- a__last a__first) (- b__last b__first)))
  (< b__last b__first))
  (forall ((temp___idx_154 Int))
  (=> (and (<= a__first temp___idx_154) (<= temp___idx_154 a__last))
  (= (ite (select a temp___idx_154) 1 0) (ite (select b (+ (- b__first a__first) temp___idx_154)) 1 0)))))))))

(declare-const du_available (Array Int Bool))

(declare-const attr__ATTRIBUTE_ADDRESS Int)

;; Assume
  (assert true)

(declare-const o Bool)

;; H
  (assert
  (ite (not (= (select du_available 1) true))
  (= o (ite (= (select du_available 2) true) false true)) (= o false)))

(declare-const cursor_location__none_available__result Bool)

;; H
  (assert (= cursor_location__none_available__result o))

;; Assert
  (assert
  (and (not (= (select du_available 1) true))
  (not (= (select du_available 2) true))))

(assert
;; defqtvc
 ;; File "cursor_location.adb", line 15, characters 0-0
  (not (not (= (select du_available 1) true))))
(check-sat)
